WARNING: for repeatability, setting FPU to use double precision
============================[ Problem Statistics ]=============================
|                                                                             |
|  Number of variables:           100                                         |
|  Number of clauses:             449                                         |
|  Parse time:                   0.00 s                                       |
|  Simplification time:          0.00 s                                       |
|                                                                             |
============================[ Search Statistics ]==============================
| Conflicts |          ORIGINAL         |          LEARNT          | Progress |
|           |    Vars  Clauses Literals |    Limit  Clauses Lit/Cl |          |
===============================================================================
|       100 |     100      449     1347 |      164      100      7 |  0.020 % |
===============================================================================
restarts              : 3
conflicts             : 210            (187835 /sec)
decisions             : 250            (0.00 % random) (223614 /sec)
propagations          : 4647           (4156530 /sec)
conflict literals     : 1284           (20.05 % deleted)
Memory used           : 13.00 MB
CPU time              : 0.001118 s

SATISFIABLE
